100
120
98
98
98
98
96
93
92
91
90
89
87
87
86
86
85
84
83
83
81
78
78
78
78
78
78
77
72
72
71
70
70
70
69
68
67
65
65
64
64
64
63
63
62
62
62
62
61
61
60
60
59
59
58
57
57
56
56
56
55
54
51
50
49
49
47
46
46
39
39
38
38
34
33
32
30
30
29
28
27
26
24
23
23
22
22
22
20
18
18
15
12
9
6
6
5
3
3
2
2
2
